750
150 150
1 105 818
2 105 623
3 105 916
4 105 422
5 105 818
6 105 274
7 105 80
8 105 240
9 105 416
10 105 820
11 105 546
12 104 786
13 104 57
14 104 255
15 103 713
16 103 290
17 103 961
18 102 443
19 102 228
20 102 515
21 102 335
22 101 235
23 101 681
24 101 706
25 101 151
26 101 652
27 101 101
28 101 196
29 101 496
30 101 749
31 101 572
32 101 102
33 101 681
34 100 861
35 100 423
36 100 243
37 100 173
38 100 720
39 100 45
40 100 474
41 100 442
42 100 344
43 100 511
44 99 644
45 99 129
46 99 507
47 99 601
48 99 775
49 99 36
50 99 249
51 99 803
52 99 440
53 98 971
54 98 784
55 98 532
56 98 311
57 98 66
58 98 981
59 98 155
60 98 323
61 98 56
62 97 47
63 97 416
64 97 849
65 97 10
66 97 846
67 97 561
68 97 731
69 96 492
70 96 589
71 96 154
72 96 481
73 96 683
74 96 456
75 96 924
76 96 381
77 95 867
78 95 310
79 95 172
80 95 500
81 95 567
82 95 477
83 94 921
84 94 383
85 94 647
86 94 547
87 94 220
88 94 409
89 94 253
90 94 898
91 93 763
92 93 498
93 93 560
94 93 612
95 93 396
96 93 800
97 93 107
98 92 460
99 92 462
100 92 726
101 92 954
102 92 867
103 92 487
104 92 506
105 92 985
106 92 125
107 91 175
108 91 823
109 91 340
110 91 499
111 91 637
112 91 606
113 91 225
114 90 619
115 90 623
116 90 169
117 90 15
118 90 262
119 90 363
120 89 504
121 89 708
122 89 973
123 89 175
124 89 942
125 89 989
126 89 767
127 88 707
128 88 460
129 88 107
130 88 889
131 88 325
132 88 248
133 88 47
134 88 843
135 87 754
136 87 622
137 87 3
138 86 171
139 86 660
140 86 567
141 86 434
142 86 347
143 86 393
144 86 456
145 85 809
146 84 7
147 84 701
148 84 100
149 84 548
150 84 933
151 84 280
152 84 521
153 84 910
154 84 167
155 84 412
156 84 166
157 84 285
158 83 845
159 83 705
160 83 749
161 83 472
162 83 421
163 83 10
164 83 858
165 83 281
166 83 269
167 83 570
168 82 822
169 82 624
170 82 832
171 82 780
172 82 18
173 82 629
174 82 774
175 82 465
176 82 924
177 82 7
178 81 395
179 81 753
180 81 793
181 81 885
182 81 794
183 81 778
184 81 114
185 80 760
186 80 321
187 80 61
188 80 314
189 80 178
190 80 868
191 80 747
192 80 632
193 79 658
194 79 631
195 79 23
196 79 116
197 79 350
198 79 326
199 79 877
200 79 568
201 79 359
202 79 17
203 79 695
204 79 559
205 79 465
206 78 860
207 78 547
208 78 766
209 78 812
210 78 365
211 78 673
212 78 564
213 78 389
214 77 298
215 77 205
216 77 893
217 77 93
218 77 518
219 77 116
220 77 541
221 77 936
222 76 96
223 76 454
224 76 949
225 76 718
226 76 611
227 76 743
228 76 787
229 76 40
230 75 695
231 75 92
232 75 367
233 75 273
234 75 836
235 75 417
236 74 787
237 74 374
238 74 686
239 74 420
240 74 507
241 74 951
242 74 932
243 74 944
244 74 571
245 74 783
246 73 983
247 73 256
248 73 651
249 73 765
250 73 143
251 73 838
252 73 907
253 73 203
254 73 805
255 73 399
256 72 403
257 72 835
258 72 37
259 72 496
260 72 928
261 72 695
262 72 718
263 72 471
264 72 33
265 72 333
266 72 638
267 71 860
268 71 838
269 71 107
270 71 147
271 70 417
272 70 501
273 70 877
274 70 325
275 70 96
276 70 707
277 70 196
278 70 241
279 70 457
280 70 457
281 70 23
282 70 858
283 70 845
284 70 908
285 70 502
286 70 178
287 70 216
288 69 186
289 69 552
290 69 580
291 69 799
292 69 357
293 69 221
294 68 890
295 68 399
296 68 28
297 68 972
298 68 506
299 68 11
300 68 808
301 68 2
302 67 427
303 67 440
304 67 214
305 67 577
306 67 914
307 67 918
308 66 849
309 66 663
310 66 832
311 66 617
312 66 30
313 66 617
314 66 55
315 66 582
316 65 948
317 65 694
318 65 186
319 65 446
320 65 934
321 64 345
322 64 71
323 64 567
324 64 214
325 64 864
326 64 562
327 64 185
328 63 668
329 63 979
330 63 770
331 63 545
332 63 487
333 63 183
334 63 743
335 63 316
336 63 620
337 63 859
338 63 914
339 63 174
340 63 636
341 63 265
342 62 340
343 62 521
344 62 137
345 62 977
346 62 875
347 62 804
348 62 21
349 62 88
350 62 753
351 62 332
352 62 221
353 62 576
354 61 954
355 61 642
356 61 75
357 61 12
358 61 936
359 61 218
360 61 17
361 61 9
362 60 152
363 60 577
364 60 589
365 60 935
366 60 805
367 60 540
368 60 246
369 60 483
370 60 466
371 60 233
372 60 91
373 60 311
374 59 904
375 59 521
376 59 232
377 59 147
378 59 291
379 59 954
380 59 675
381 59 41
382 59 521
383 59 191
384 58 155
385 58 906
386 58 236
387 58 834
388 58 691
389 58 274
390 58 534
391 58 831
392 57 186
393 57 794
394 57 956
395 57 192
396 57 381
397 57 31
398 57 447
399 57 215
400 57 657
401 57 279
402 57 174
403 56 943
404 56 624
405 56 179
406 56 183
407 56 740
408 56 803
409 56 997
410 56 262
411 55 566
412 55 399
413 55 711
414 55 803
415 55 597
416 55 625
417 55 754
418 55 133
419 55 812
420 55 3
421 55 353
422 55 937
423 55 313
424 54 882
425 54 530
426 54 181
427 54 887
428 54 473
429 54 4
430 54 479
431 53 332
432 53 247
433 53 581
434 53 822
435 53 524
436 53 983
437 53 370
438 53 259
439 53 409
440 53 452
441 53 262
442 53 392
443 52 898
444 52 990
445 52 935
446 52 547
447 52 594
448 51 207
449 51 670
450 51 10
451 51 106
452 51 840
453 51 28
454 51 738
455 50 308
456 50 882
457 50 408
458 50 97
459 50 310
460 50 750
461 50 134
462 50 842
463 50 466
464 50 915
465 50 749
466 49 483
467 49 469
468 49 682
469 49 19
470 49 365
471 49 163
472 48 963
473 48 259
474 48 228
475 48 565
476 48 667
477 48 282
478 48 471
479 48 185
480 48 417
481 47 20
482 47 172
483 47 644
484 47 434
485 47 498
486 47 326
487 47 626
488 47 860
489 47 324
490 47 34
491 46 410
492 46 118
493 46 351
494 46 775
495 46 783
496 46 753
497 46 998
498 46 310
499 46 775
500 46 744
501 46 351
502 45 5
503 45 923
504 45 669
505 45 869
506 45 417
507 45 236
508 45 756
509 45 968
510 45 662
511 44 776
512 44 897
513 44 558
514 44 403
515 44 367
516 44 178
517 44 43
518 44 284
519 44 586
520 44 604
521 43 707
522 43 449
523 43 23
524 43 772
525 42 334
526 42 501
527 42 130
528 42 7
529 42 591
530 42 701
531 42 526
532 42 545
533 42 994
534 42 947
535 42 244
536 41 663
537 41 864
538 41 323
539 41 602
540 41 110
541 41 484
542 41 693
543 41 152
544 41 933
545 40 978
546 40 52
547 40 347
548 40 303
549 40 734
550 40 32
551 40 795
552 40 198
553 40 90
554 39 0
555 39 66
556 39 730
557 39 369
558 39 352
559 39 847
560 39 273
561 38 673
562 38 97
563 38 68
564 38 550
565 38 613
566 38 202
567 38 202
568 38 482
569 37 515
570 37 184
571 37 667
572 37 204
573 37 956
574 37 144
575 37 54
576 37 255
577 36 884
578 36 802
579 36 677
580 36 731
581 36 152
582 36 932
583 36 523
584 36 376
585 35 479
586 35 412
587 35 938
588 35 675
589 35 299
590 35 124
591 35 303
592 34 85
593 34 759
594 34 944
595 34 68
596 34 521
597 34 311
598 34 925
599 34 482
600 34 465
601 34 164
602 33 659
603 33 221
604 33 638
605 32 834
606 32 619
607 32 337
608 32 624
609 32 186
610 32 409
611 32 581
612 32 302
613 32 117
614 32 782
615 32 856
616 31 695
617 31 851
618 31 6
619 31 710
620 31 209
621 31 264
622 31 31
623 31 922
624 30 508
625 30 22
626 30 191
627 30 65
628 30 904
629 30 116
630 30 57
631 30 434
632 30 899
633 30 119
634 29 437
635 29 508
636 29 538
637 29 832
638 29 929
639 29 732
640 29 713
641 29 861
642 29 641
643 29 946
644 28 287
645 28 454
646 28 870
647 28 371
648 28 355
649 27 917
650 27 228
651 27 615
652 27 485
653 27 735
654 27 592
655 26 739
656 26 231
657 26 322
658 26 527
659 26 357
660 26 230
661 26 253
662 26 906
663 25 296
664 25 330
665 25 942
666 25 840
667 25 558
668 25 527
669 25 841
670 24 419
671 24 69
672 24 924
673 24 707
674 24 122
675 24 992
676 24 673
677 24 301
678 23 651
679 23 781
680 23 394
681 23 636
682 23 940
683 23 21
684 23 166
685 23 424
686 23 624
687 23 336
688 22 865
689 22 313
690 22 457
691 22 21
692 22 675
693 22 666
694 22 102
695 22 613
696 22 422
697 22 112
698 22 523
699 22 669
700 22 122
701 21 960
702 21 971
703 21 732
704 21 247
705 21 426
706 20 974
707 20 922
708 20 175
709 20 523
710 20 435
711 20 26
712 20 936
713 19 960
714 19 880
715 19 336
716 19 802
717 19 330
718 19 288
719 19 410
720 19 605
721 19 34
722 19 835
723 19 500
724 18 879
725 18 683
726 18 514
727 18 738
728 18 590
729 18 530
730 18 673
731 18 727
732 17 989
733 17 428
734 16 527
735 16 531
736 16 679
737 16 481
738 16 846
739 16 757
740 16 675
741 16 633
742 16 39
743 16 178
744 15 657
745 15 842
746 15 113
747 15 164
748 15 773
749 15 612
750 15 10
